100 90 12
0 1 0
1 2 0
2 3 0
3 4 0
4 5 0
5 6 0
6 7 0
7 8 0
8 9 0
10 11 1
11 12 1
12 13 1
13 14 1
14 15 1
15 16 1
16 17 1
17 18 1
18 19 1
20 21 2
21 22 2
22 23 2
23 24 2
24 25 2
25 26 2
26 27 2
27 28 2
28 29 2
30 31 3
31 32 3
32 33 3
33 34 3
34 35 3
35 36 3
36 37 3
37 38 3
38 39 3
40 41 4
41 42 4
42 43 4
43 44 4
44 45 4
45 46 4
46 47 4
47 48 4
48 49 4
50 51 5
51 52 5
52 53 5
53 54 5
54 55 5
55 56 5
56 57 5
57 58 5
58 59 5
60 61 6
61 62 6
62 63 6
63 64 6
64 65 6
65 66 6
66 67 6
67 68 6
68 69 6
70 71 7
71 72 7
72 73 7
73 74 7
74 75 7
75 76 7
76 77 7
77 78 7
78 79 7
80 81 8
81 82 8
82 83 8
83 84 8
84 85 8
85 86 8
86 87 8
87 88 8
88 89 8
90 91 9
91 92 9
92 93 9
93 94 9
94 95 9
95 96 9
96 97 9
97 98 9
98 99 9
2 0 29 10 29
1 1 78
1 2 9
1 3 36
1 4 49
1 5 11
1 6 62
2 7 56 11 56
1 8 44
1 9 21
2 0 43 10 43
1 2 90
1 4 75
1 9 11
1 3 69
1 1 28
1 6 46
1 5 46
2 7 72 11 72
1 8 30
1 1 91
2 0 85 10 85
1 3 39
1 2 74
1 8 90
1 5 10
2 7 12 11 12
1 6 89
1 9 45
1 4 33
1 1 81
1 2 95
2 0 71 10 71
1 4 99
1 6 9
1 8 52
2 7 85 11 85
1 3 98
1 9 22
1 5 43
1 2 14
2 0 6 10 6
1 1 22
1 5 61
1 3 26
1 4 69
1 8 21
2 7 49 11 49
1 9 72
1 6 53
1 2 84
1 1 2
1 5 52
1 3 95
1 8 48
1 9 72
2 0 47 10 47
1 6 65
1 4 6
2 7 25 11 25
1 1 46
2 0 37 10 37
1 3 61
1 2 13
1 6 32
1 5 21
1 9 32
1 8 89
2 7 30 11 30
1 4 55
1 2 31
2 0 86 10 86
1 1 46
1 5 74
1 4 32
1 6 88
1 8 19
1 9 48
2 7 36 11 36
1 3 79
2 0 76 10 76
1 1 69
1 3 76
1 5 51
1 2 85
1 9 11
1 6 40
2 7 89 11 89
1 4 26
1 8 74
1 1 85
2 0 13 10 13
1 2 61
1 6 7
1 8 64
1 9 76
1 5 47
1 3 52
1 4 90
2 7 45 11 45